p cnf 1160
-22 -358
-23 -361
-24 -364
-25 -367
-26 -370
-27 -373
-28 -376
-29 -379
-30 -382
-31 -385
-32 -388
-33 -391
-34 -394
-35 -397
-36 -400
-37 -403
-38 -406
-39 -409
-40 -412
-41 -415
-42 -418
-43 419
-44 420
-45 421
-46 422
-47 -23
-47 -24
23 24 47
-48 -25
-48 -26
25 26 48
-49 -27
-49 -28
27 28 49
-50 -29
-50 -30
29 30 50
-51 -31
-51 -32
31 32 51
-52 -33
-52 -34
33 34 52
-53 -35
-53 -36
35 36 53
-54 -37
-54 -38
37 38 54
-55 -39
-55 -40
39 40 55
-56 -41
-56 -42
41 42 56
-57 -43
-57 -44
43 44 57
-58 -45
-58 -46
45 46 58
-59 47
-59 48
-47 -48 59
-60 49
-60 50
-49 -50 60
-61 51
-61 52
-51 -52 61
-62 53
-62 54
-53 -54 62
-63 55
-63 56
-55 -56 63
-64 57
-64 58
-57 -58 64
-65 59
-65 60
-59 -60 65
-66 61
-66 62
-61 -62 66
-67 63
-67 64
-63 -64 67
-68 65
-68 66
-65 -66 68
-69 67
-69 68
-67 -68 69
-70 -22
-70 23
22 -23 70
-71 22
-71 -23
-22 23 71
-72 -70
-72 -71
70 71 72
-73 22
-73 23
-22 -23 73
-74 -22
-74 -72
22 72 74
-75 22
-75 72
-22 -72 75
-76 -74
-76 -75
74 75 76
-77 22
-77 -72
-22 72 77
-78 -73
-78 -77
73 77 78
-79 -23
-79 24
23 -24 79
-80 23
-80 -24
-23 24 80
-81 -79
-81 -80
79 80 81
-82 23
-82 24
-23 -24 82
-83 78
-83 -81
-78 81 83
-84 -78
-84 81
78 -81 84
-85 -83
-85 -84
83 84 85
-86 -78
-86 -81
78 81 86
-87 -82
-87 -86
82 86 87
-88 -24
-88 25
24 -25 88
-89 24
-89 -25
-24 25 89
-90 -88
-90 -89
88 89 90
-91 24
-91 25
-24 -25 91
-92 87
-92 -90
-87 90 92
-93 -87
-93 90
87 -90 93
-94 -92
-94 -93
92 93 94
-95 -87
-95 -90
87 90 95
-96 -91
-96 -95
91 95 96
-97 -25
-97 26
25 -26 97
-98 25
-98 -26
-25 26 98
-99 -97
-99 -98
97 98 99
-100 25
-100 26
-25 -26 100
-101 96
-101 -99
-96 99 101
-102 -96
-102 99
96 -99 102
-103 -101
-103 -102
101 102 103
-104 -96
-104 -99
96 99 104
-105 -100
-105 -104
100 104 105
-106 -26
-106 27
26 -27 106
-107 26
-107 -27
-26 27 107
-108 -106
-108 -107
106 107 108
-109 26
-109 27
-26 -27 109
-110 105
-110 -108
-105 108 110
-111 -105
-111 108
105 -108 111
-112 -110
-112 -111
110 111 112
-113 -105
-113 -108
105 108 113
-114 -109
-114 -113
109 113 114
-115 -27
-115 28
27 -28 115
-116 27
-116 -28
-27 28 116
-117 -115
-117 -116
115 116 117
-118 27
-118 28
-27 -28 118
-119 114
-119 -117
-114 117 119
-120 -114
-120 117
114 -117 120
-121 -119
-121 -120
119 120 121
-122 -114
-122 -117
114 117 122
-123 -118
-123 -122
118 122 123
-124 -28
-124 29
28 -29 124
-125 28
-125 -29
-28 29 125
-126 -124
-126 -125
124 125 126
-127 28
-127 29
-28 -29 127
-128 123
-128 -126
-123 126 128
-129 -123
-129 126
123 -126 129
-130 -128
-130 -129
128 129 130
-131 -123
-131 -126
123 126 131
-132 -127
-132 -131
127 131 132
-133 -29
-133 30
29 -30 133
-134 29
-134 -30
-29 30 134
-135 -133
-135 -134
133 134 135
-136 29
-136 30
-29 -30 136
-137 132
-137 -135
-132 135 137
-138 -132
-138 135
132 -135 138
-139 -137
-139 -138
137 138 139
-140 -132
-140 -135
132 135 140
-141 -136
-141 -140
136 140 141
-142 -30
-142 31
30 -31 142
-143 30
-143 -31
-30 31 143
-144 -142
-144 -143
142 143 144
-145 30
-145 31
-30 -31 145
-146 141
-146 -144
-141 144 146
-147 -141
-147 144
141 -144 147
-148 -146
-148 -147
146 147 148
-149 -141
-149 -144
141 144 149
-150 -145
-150 -149
145 149 150
-151 -31
-151 32
31 -32 151
-152 31
-152 -32
-31 32 152
-153 -151
-153 -152
151 152 153
-154 31
-154 32
-31 -32 154
-155 150
-155 -153
-150 153 155
-156 -150
-156 153
150 -153 156
-157 -155
-157 -156
155 156 157
-158 -150
-158 -153
150 153 158
-159 -154
-159 -158
154 158 159
-160 -32
-160 33
32 -33 160
-161 32
-161 -33
-32 33 161
-162 -160
-162 -161
160 161 162
-163 32
-163 33
-32 -33 163
-164 159
-164 -162
-159 162 164
-165 -159
-165 162
159 -162 165
-166 -164
-166 -165
164 165 166
-167 -159
-167 -162
159 162 167
-168 -163
-168 -167
163 167 168
-169 -33
-169 34
33 -34 169
-170 33
-170 -34
-33 34 170
-171 -169
-171 -170
169 170 171
-172 33
-172 34
-33 -34 172
-173 168
-173 -171
-168 171 173
-174 -168
-174 171
168 -171 174
-175 -173
-175 -174
173 174 175
-176 -168
-176 -171
168 171 176
-177 -172
-177 -176
172 176 177
-178 -34
-178 35
34 -35 178
-179 34
-179 -35
-34 35 179
-180 -178
-180 -179
178 179 180
-181 34
-181 35
-34 -35 181
-182 177
-182 -180
-177 180 182
-183 -177
-183 180
177 -180 183
-184 -182
-184 -183
182 183 184
-185 -177
-185 -180
177 180 185
-186 -181
-186 -185
181 185 186
-187 -35
-187 36
35 -36 187
-188 35
-188 -36
-35 36 188
-189 -187
-189 -188
187 188 189
-190 35
-190 36
-35 -36 190
-191 186
-191 -189
-186 189 191
-192 -186
-192 189
186 -189 192
-193 -191
-193 -192
191 192 193
-194 -186
-194 -189
186 189 194
-195 -190
-195 -194
190 194 195
-196 -36
-196 37
36 -37 196
-197 36
-197 -37
-36 37 197
-198 -196
-198 -197
196 197 198
-199 36
-199 37
-36 -37 199
-200 195
-200 -198
-195 198 200
-201 -195
-201 198
195 -198 201
-202 -200
-202 -201
200 201 202
-203 -195
-203 -198
195 198 203
-204 -199
-204 -203
199 203 204
-205 -37
-205 38
37 -38 205
-206 37
-206 -38
-37 38 206
-207 -205
-207 -206
205 206 207
-208 37
-208 38
-37 -38 208
-209 204
-209 -207
-204 207 209
-210 -204
-210 207
204 -207 210
-211 -209
-211 -210
209 210 211
-212 -204
-212 -207
204 207 212
-213 -208
-213 -212
208 212 213
-214 -38
-214 39
38 -39 214
-215 38
-215 -39
-38 39 215
-216 -214
-216 -215
214 215 216
-217 38
-217 39
-38 -39 217
-218 213
-218 -216
-213 216 218
-219 -213
-219 216
213 -216 219
-220 -218
-220 -219
218 219 220
-221 -213
-221 -216
213 216 221
-222 -217
-222 -221
217 221 222
-223 -39
-223 40
39 -40 223
-224 39
-224 -40
-39 40 224
-225 -223
-225 -224
223 224 225
-226 39
-226 40
-39 -40 226
-227 222
-227 -225
-222 225 227
-228 -222
-228 225
222 -225 228
-229 -227
-229 -228
227 228 229
-230 -222
-230 -225
222 225 230
-231 -226
-231 -230
226 230 231
-232 -40
-232 41
40 -41 232
-233 40
-233 -41
-40 41 233
-234 -232
-234 -233
232 233 234
-235 40
-235 41
-40 -41 235
-236 231
-236 -234
-231 234 236
-237 -231
-237 234
231 -234 237
-238 -236
-238 -237
236 237 238
-239 -231
-239 -234
231 234 239
-240 -235
-240 -239
235 239 240
-241 -41
-241 42
41 -42 241
-242 41
-242 -42
-41 42 242
-243 -241
-243 -242
241 242 243
-244 41
-244 42
-41 -42 244
-245 240
-245 -243
-240 243 245
-246 -240
-246 243
240 -243 246
-247 -245
-247 -246
245 246 247
-248 -240
-248 -243
240 243 248
-249 -244
-249 -248
244 248 249
-250 -42
-250 43
42 -43 250
-251 42
-251 -43
-42 43 251
-252 -250
-252 -251
250 251 252
-253 42
-253 43
-42 -43 253
-254 249
-254 -252
-249 252 254
-255 -249
-255 252
249 -252 255
-256 -254
-256 -255
254 255 256
-257 -249
-257 -252
249 252 257
-258 -253
-258 -257
253 257 258
-259 -43
-259 44
43 -44 259
-260 43
-260 -44
-43 44 260
-261 -259
-261 -260
259 260 261
-262 43
-262 44
-43 -44 262
-263 258
-263 -261
-258 261 263
-264 -258
-264 261
258 -261 264
-265 -263
-265 -264
263 264 265
-266 -258
-266 -261
258 261 266
-267 -262
-267 -266
262 266 267
-268 -44
-268 45
44 -45 268
-269 44
-269 -45
-44 45 269
-270 -268
-270 -269
268 269 270
-271 44
-271 45
-44 -45 271
-272 267
-272 -270
-267 270 272
-273 -267
-273 270
267 -270 273
-274 -272
-274 -273
272 273 274
-275 -267
-275 -270
267 270 275
-276 -271
-276 -275
271 275 276
-277 -45
-277 46
45 -46 277
-278 45
-278 -46
-45 46 278
-279 -277
-279 -278
277 278 279
-280 45
-280 46
-45 -46 280
-281 276
-281 -279
-276 279 281
-282 -276
-282 279
276 -279 282
-283 -281
-283 -282
281 282 283
-284 -276
-284 -279
276 279 284
-285 -280
-285 -284
280 284 285
-286 22
-286 -76
-22 76 286
-287 -22
-287 24
22 -24 287
-288 -286
-288 -287
286 287 288
-289 22
-289 -85
-22 85 289
-290 -22
-290 25
22 -25 290
-291 -289
-291 -290
289 290 291
-292 22
-292 -94
-22 94 292
-293 -22
-293 26
22 -26 293
-294 -292
-294 -293
292 293 294
-295 22
-295 -103
-22 103 295
-296 -22
-296 27
22 -27 296
-297 -295
-297 -296
295 296 297
-298 22
-298 -112
-22 112 298
-299 -22
-299 28
22 -28 299
-300 -298
-300 -299
298 299 300
-301 22
-301 -121
-22 121 301
-302 -22
-302 29
22 -29 302
-303 -301
-303 -302
301 302 303
-304 22
-304 -130
-22 130 304
-305 -22
-305 30
22 -30 305
-306 -304
-306 -305
304 305 306
-307 22
-307 -139
-22 139 307
-308 -22
-308 31
22 -31 308
-309 -307
-309 -308
307 308 309
-310 22
-310 -148
-22 148 310
-311 -22
-311 32
22 -32 311
-312 -310
-312 -311
310 311 312
-313 22
-313 -157
-22 157 313
-314 -22
-314 33
22 -33 314
-315 -313
-315 -314
313 314 315
-316 22
-316 -166
-22 166 316
-317 -22
-317 34
22 -34 317
-318 -316
-318 -317
316 317 318
-319 22
-319 -175
-22 175 319
-320 -22
-320 35
22 -35 320
-321 -319
-321 -320
319 320 321
-322 22
-322 -184
-22 184 322
-323 -22
-323 36
22 -36 323
-324 -322
-324 -323
322 323 324
-325 22
-325 -193
-22 193 325
-326 -22
-326 37
22 -37 326
-327 -325
-327 -326
325 326 327
-328 22
-328 -202
-22 202 328
-329 -22
-329 38
22 -38 329
-330 -328
-330 -329
328 329 330
-331 22
-331 -211
-22 211 331
-332 -22
-332 39
22 -39 332
-333 -331
-333 -332
331 332 333
-334 22
-334 -220
-22 220 334
-335 -22
-335 40
22 -40 335
-336 -334
-336 -335
334 335 336
-337 22
-337 -229
-22 229 337
-338 -22
-338 41
22 -41 338
-339 -337
-339 -338
337 338 339
-340 22
-340 -238
-22 238 340
-341 -22
-341 42
22 -42 341
-342 -340
-342 -341
340 341 342
-343 22
-343 -247
-22 247 343
-344 -22
-344 43
22 -43 344
-345 -343
-345 -344
343 344 345
-346 22
-346 -256
-22 256 346
-347 -22
-347 44
22 -44 347
-348 -346
-348 -347
346 347 348
-349 22
-349 -265
-22 265 349
-350 -22
-350 45
22 -45 350
-351 -349
-351 -350
349 350 351
-352 22
-352 -274
-22 274 352
-353 -22
-353 46
22 -46 353
-354 -352
-354 -353
352 353 354
-355 22
-355 -283
-22 283 355
-356 1
-356 69
-1 -69 356
-357 -69
-357 70
69 -70 357
-358 -356
-358 -357
356 357 358
-359 2
-359 69
-2 -69 359
-360 -69
-360 -288
69 288 360
-361 -359
-361 -360
359 360 361
-362 3
-362 69
-3 -69 362
-363 -69
-363 -291
69 291 363
-364 -362
-364 -363
362 363 364
-365 4
-365 69
-4 -69 365
-366 -69
-366 -294
69 294 366
-367 -365
-367 -366
365 366 367
-368 5
-368 69
-5 -69 368
-369 -69
-369 -297
69 297 369
-370 -368
-370 -369
368 369 370
-371 6
-371 69
-6 -69 371
-372 -69
-372 -300
69 300 372
-373 -371
-373 -372
371 372 373
-374 7
-374 69
-7 -69 374
-375 -69
-375 -303
69 303 375
-376 -374
-376 -375
374 375 376
-377 8
-377 69
-8 -69 377
-378 -69
-378 -306
69 306 378
-379 -377
-379 -378
377 378 379
-380 9
-380 69
-9 -69 380
-381 -69
-381 -309
69 309 381
-382 -380
-382 -381
380 381 382
-383 10
-383 69
-10 -69 383
-384 -69
-384 -312
69 312 384
-385 -383
-385 -384
383 384 385
-386 11
-386 69
-11 -69 386
-387 -69
-387 -315
69 315 387
-388 -386
-388 -387
386 387 388
-389 12
-389 69
-12 -69 389
-390 -69
-390 -318
69 318 390
-391 -389
-391 -390
389 390 391
-392 13
-392 69
-13 -69 392
-393 -69
-393 -321
69 321 393
-394 -392
-394 -393
392 393 394
-395 14
-395 69
-14 -69 395
-396 -69
-396 -324
69 324 396
-397 -395
-397 -396
395 396 397
-398 15
-398 69
-15 -69 398
-399 -69
-399 -327
69 327 399
-400 -398
-400 -399
398 399 400
-401 16
-401 69
-16 -69 401
-402 -69
-402 -330
69 330 402
-403 -401
-403 -402
401 402 403
-404 17
-404 69
-17 -69 404
-405 -69
-405 -333
69 333 405
-406 -404
-406 -405
404 405 406
-407 18
-407 69
-18 -69 407
-408 -69
-408 -336
69 336 408
-409 -407
-409 -408
407 408 409
-410 19
-410 69
-19 -69 410
-411 -69
-411 -339
69 339 411
-412 -410
-412 -411
410 411 412
-413 20
-413 69
-20 -69 413
-414 -69
-414 -342
69 342 414
-415 -413
-415 -414
413 414 415
-416 21
-416 69
-21 -69 416
-417 -69
-417 -345
69 345 417
-418 -416
-418 -417
416 417 418
-419 -69
-419 -348
69 348 419
-420 -69
-420 -351
69 351 420
-421 -69
-421 -354
69 354 421
-422 -69
-422 355
69 -355 422
-423 -46
-423 285
46 -285 423
-424 22
-424 -423
-22 423 424
424
